data;

param num_top:=6;

#nodes and edges of the physical network
param n := 10;

set E := (1,2) (1,3) (1,7) (2,4) (2,7) (3,5) (4,8) (5,6) (5,7) (6,7) (6,9) (7,8) (7,9) (8,10) (9,10) ;

#nodes and edges of the virtual networks
set Nl[1] := 3 4 6 8 10 ;
set Nl[2] := 9 1 8 10 3 ;
set Nl[3] := 10 5 1 8 6 ;
set Nl[4] := 9 4 6 10 5 ;
set Nl[5] := 3 2 9 7 4 ;
set Nl[6] := 7 3 8 6 9 ;

set El[1] := (3,4) (4,6) (6,8) (8,10) (3,10) (4,10) (3,8) (3,6) (4,8) (6,10) ;
set El[2] := (1,9) (1,8) (8,10) (3,10) (3,9) (8,9) (3,8) (1,3) (9,10) (1,10) ;
set El[3] := (5,10) (1,5) (1,8) (6,8) (6,10) (8,10) (1,6) (1,10) (5,6) (5,8) ;
set El[4] := (4,9) (4,6) (6,10) (5,10) (5,9) (6,9) (5,6) (9,10) (4,10) (4,5) ;
set El[5] := (2,3) (2,9) (7,9) (4,7) (3,4) (3,7) (4,9) (2,7) (2,4) (3,9) ;
set El[6] := (3,7) (3,8) (6,8) (6,9) (7,9) (3,9) (8,9) (3,6) (6,7) (7,8) ;
